Problem:    
Rows:       260
Columns:    89 (72 integer, 72 binary)
Non-zeros:  974
Status:     INTEGER OPTIMAL
Objective:  value = 142.400924 (MINimum)

   No.   Row name        Activity     Lower bound   Upper bound
------ ------------    ------------- ------------- -------------
     1 r.5                   142.401             0               
     2 r.6                   68.6713      -905.531               
     3 r.7                    1142.4             0               
     4 r.8                  -931.329      -962.832               
     5 r.9                    1142.4             0               
     6 r.10                 -897.831      -904.815               
     7 r.11                  142.401             0               
     8 r.12                 -956.381      -963.365               
     9 r.13                  142.401             0               
    10 r.14                  68.6713      -998.123               
    11 r.15                   1142.4             0               
    12 r.16                 -968.497      -995.269               
    13 r.17                   1142.4             0               
    14 r.18                  -891.95      -996.562               
    15 r.19                  142.401             0               
    16 r.20                 -985.865      -992.848               
    17 r.21                  142.401             0               
    18 r.22                  68.6713      -953.798               
    19 r.23                   1142.4             0               
    20 r.24                 -973.227      -981.228               
    21 r.25                  142.401             0               
    22 r.26                  11.8716      -998.816               
    23 r.27                   1142.4             0               
    24 r.28                  -997.58      -997.581               
    25 r.29                  142.401             0               
    26 r.30                  142.401      -908.481               
    27 r.31                   1142.4             0               
    28 r.32                 -857.599      -968.093               
    29 r.33                  142.401             0               
    30 r.34                  142.401      -865.642               
    31 r.35                   1142.4             0               
    32 r.36                 -889.506      -958.177               
    33 r.37                        1             1             = 
    34 r.38                        1             1             = 
    35 r.39                        1             1             = 
    36 r.40                        1             1             = 
    37 r.41                        1             1             = 
    38 r.42                        1             1             = 
    39 r.43                        1             1             = 
    40 r.44                        1             1             = 
    41 r.45                     1001             2               
    42 r.46                    -1001         -1001               
    43 r.47                   2033.5      -904.815               
    44 r.48                     1001             2               
    45 r.49                    -1001         -1001               
    46 r.50                  974.948      -963.365               
    47 r.51                     1000             2               
    48 r.52                    -1000         -1001               
    49 r.53                     2000      -998.123               
    50 r.54                        2             2               
    51 r.55                       -2         -1001               
    52 r.56                 -37.1679      -995.269               
    53 r.57                     1001             2               
    54 r.58                    -1001         -1001               
    55 r.59                  2039.38      -996.562               
    56 r.60                     1001             2               
    57 r.61                    -1001         -1001               
    58 r.62                  945.464      -992.848               
    59 r.63                     1000             2               
    60 r.64                    -1000         -1001               
    61 r.65                     2000      -953.798               
    62 r.66                        2             2               
    63 r.67                       -2         -1001               
    64 r.68                 -41.8988      -981.228               
    65 r.69                  61.6878      -905.531               
    66 r.70                 -938.312      -962.832               
    67 r.71                  61.6878      -905.531               
    68 r.72                 -938.312      -962.832               
    69 r.73                  73.7296      -908.481               
    70 r.74                  -926.27      -968.093               
    71 r.75                  73.7296      -908.481               
    72 r.76                  -926.27      -968.093               
    73 r.77                  73.7296      -865.642               
    74 r.78                 -958.177      -958.177               
    75 r.79                  73.7296      -865.642               
    76 r.80                 -958.177      -958.177               
    77 r.81                     1001             2               
    78 r.82                    -1001         -1001               
    79 r.83                  1964.06       94.4686               
    80 r.84                     1001             2               
    81 r.85                    -1001         -1001               
    82 r.86                  3027.33       37.1679               
    83 r.87                     1001             2               
    84 r.88                    -1001         -1001               
    85 r.89                  1964.06      -998.123               
    86 r.90                     1001             2               
    87 r.91                    -1001         -1001               
    88 r.92                  2990.17      -995.269               
    89 r.93                        2             2               
    90 r.94                       -2         -1001               
    91 r.95                 -996.562      -996.562               
    92 r.96                     1000             2               
    93 r.97                    -1000         -1001               
    94 r.98                   1972.8      -992.848               
    95 r.99                     1001             2               
    96 r.100                   -1001         -1001               
    97 r.101                 1964.06      -953.798               
    98 r.102                    1001             2               
    99 r.103                   -1001         -1001               
   100 r.104                 2985.44      -981.228               
   101 r.105                -904.815      -904.815               
   102 r.106                -963.365      -963.365               
   103 r.107                -904.815      -904.815               
   104 r.108                -963.365      -963.365               
   105 r.109                 37.7884      -908.481               
   106 r.110                -962.212      -968.093               
   107 r.111                 1101.06      -908.481               
   108 r.112                 101.064      -968.093               
   109 r.113                    1001             2               
   110 r.114                   -1001         -1001               
   111 r.115                 2037.79      -865.642               
   112 r.116                    1001             2               
   113 r.117                   -1001         -1001               
   114 r.118                 3069.16      -958.177               
   115 r.119                    1000             2               
   116 r.120                   -1000         -1001               
   117 r.121                    2000       94.4686               
   118 r.122                       2             2               
   119 r.123                      -2         -1001               
   120 r.124                 37.1679       37.1679               
   121 r.125                    1001             2               
   122 r.126                   -1001         -1001               
   123 r.127                  2033.5        95.185               
   124 r.128                    1001             2               
   125 r.129                   -1001         -1001               
   126 r.130                 1012.12       36.6354               
   127 r.131                    1001             2               
   128 r.132                   -1001         -1001               
   129 r.133                 2039.38      -996.562               
   130 r.134                    1001             2               
   131 r.135                   -1001         -1001               
   132 r.136                 982.632      -992.848               
   133 r.137                    1000             2               
   134 r.138                   -1000         -1001               
   135 r.139                    2000      -953.798               
   136 r.140                       2             2               
   137 r.141                      -2         -1001               
   138 r.142                -4.73084      -981.228               
   139 r.143                 61.6878      -998.123               
   140 r.144                 -975.48      -995.269               
   141 r.145                 61.6878      -998.123               
   142 r.146                 -975.48      -995.269               
   143 r.147                 73.7296      -908.481               
   144 r.148                 -926.27      -968.093               
   145 r.149                 110.898      -908.481               
   146 r.150                -889.102      -968.093               
   147 r.151                 73.7296      -865.642               
   148 r.152                -958.177      -958.177               
   149 r.153                 110.898      -865.642               
   150 r.154                -921.009      -958.177               
   151 r.155                    1001             2               
   152 r.156                   -1001         -1001               
   153 r.157                 1958.18       94.4686               
   154 r.158                    1001             2               
   155 r.159                   -1001         -1001               
   156 r.160                 3056.82       37.1679               
   157 r.161                       2             2               
   158 r.162                      -2         -1001               
   159 r.163                 991.674        95.185               
   160 r.164                    1000             2               
   161 r.165                   -1000         -1001               
   162 r.166                 2031.77       36.6354               
   163 r.167                    1001             2               
   164 r.168                   -1001         -1001               
   165 r.169                 1958.18       1.87651               
   166 r.170                    1001             2               
   167 r.171                   -1001         -1001               
   168 r.172                 3019.65       4.73084               
   169 r.173                    1001             2               
   170 r.174                   -1001         -1001               
   171 r.175                 1958.18      -953.798               
   172 r.176                    1001             2               
   173 r.177                   -1001         -1001               
   174 r.178                 3014.92      -981.228               
   175 r.179                -898.933      -996.562               
   176 r.180                -992.848      -992.848               
   177 r.181                -898.933      -996.562               
   178 r.182                -992.848      -992.848               
   179 r.183                 31.9065      -908.481               
   180 r.184                -968.093      -968.093               
   181 r.185                 1130.55      -908.481               
   182 r.186                 130.548      -968.093               
   183 r.187                    1001             2               
   184 r.188                   -1001         -1001               
   185 r.189                 2031.91      -865.642               
   186 r.190                    1001             2               
   187 r.191                   -1001         -1001               
   188 r.192                 3098.64      -958.177               
   189 r.193                    1000             2               
   190 r.194                   -1000         -1001               
   191 r.195                    2000       94.4686               
   192 r.196                       2             2               
   193 r.197                      -2         -1001               
   194 r.198                 41.8988       37.1679               
   195 r.199                    1001             2               
   196 r.200                   -1001         -1001               
   197 r.201                  2033.5        95.185               
   198 r.202                    1001             2               
   199 r.203                   -1001         -1001               
   200 r.204                 1016.85       36.6354               
   201 r.205                    1000             2               
   202 r.206                   -1000         -1001               
   203 r.207                    2000       1.87651               
   204 r.208                       2             2               
   205 r.209                      -2         -1001               
   206 r.210                 4.73084       4.73084               
   207 r.211                    1001             2               
   208 r.212                   -1001         -1001               
   209 r.213                 2039.38       3.43779               
   210 r.214                    1001             2               
   211 r.215                   -1001         -1001               
   212 r.216                 987.363       7.15186               
   213 r.217                 61.6878      -953.798               
   214 r.218                -980.211      -981.228               
   215 r.219                 61.6878      -953.798               
   216 r.220                -980.211      -981.228               
   217 r.221                    1000             2               
   218 r.222                   -1000         -1001               
   219 r.223                 2073.73      -908.481               
   220 r.224                       2             2               
   221 r.225                      -2         -1001               
   222 r.226                -884.372      -968.093               
   223 r.227                 73.7296      -865.642               
   224 r.228                -958.177      -958.177               
   225 r.229                 115.628      -865.642               
   226 r.230                -916.278      -958.177               
   227 r.231                 135.417      -908.481               
   228 r.232                -864.583      -968.093               
   229 r.233                 135.417      -908.481               
   230 r.234                -864.583      -968.093               
   231 r.235                    1000             2               
   232 r.236                   -1000         -1001               
   233 r.237                 1926.27       46.2022               
   234 r.238                       2             2               
   235 r.239                      -2         -1001               
   236 r.240                 884.372       18.7716               
   237 r.241                    1000             2               
   238 r.242                   -1000         -1001               
   239 r.243                    2000      -865.642               
   240 r.244                       2             2               
   241 r.245                      -2         -1001               
   242 r.246                -31.9065      -958.177               
   243 r.247                    1001             2               
   244 r.248                   -1001         -1001               
   245 r.249                 1959.77        95.185               
   246 r.250                    1001             2               
   247 r.251                   -1001         -1001               
   248 r.252                 933.125       36.6354               
   249 r.253                    1001             2               
   250 r.254                   -1001         -1001               
   251 r.255                 1965.65       3.43779               
   252 r.256                    1001             2               
   253 r.257                   -1001         -1001               
   254 r.258                 903.641       7.15186               
   255 r.259                    1000             2               
   256 r.260                   -1000         -1001               
   257 r.261                    2000       91.5189               
   258 r.262                       2             2               
   259 r.263                      -2         -1001               
   260 r.264                 31.9065       31.9065               

   No. Column name       Activity     Lower bound   Upper bound
------ ------------    ------------- ------------- -------------
     1 tt                    142.401             0               
     2 s_1_1        *              0             0             1 
     3 t_1_1                 73.7296             0               
     4 s_1_8        *              0             0             1 
     5 s_1_7        *              0             0             1 
     6 s_2_1        *              1             0             1 
     7 t_2_1                 73.7296             0               
     8 s_2_8        *              1             0             1 
     9 s_2_7        *              1             0             1 
    10 s_1_2        *              1             0             1 
    11 t_1_2                 37.7884             0               
    12 s_2_2        *              0             0             1 
    13 t_2_2                 1101.06             0               
    14 s_1_3        *              0             0             1 
    15 t_1_3                 73.7296             0               
    16 s_2_3        *              1             0             1 
    17 t_2_3                 110.898             0               
    18 s_1_4        *              1             0             1 
    19 t_1_4                 31.9065             0               
    20 s_2_4        *              0             0             1 
    21 t_2_4                 1130.55             0               
    22 s_1_5        *              0             0             1 
    23 t_1_5                 73.7296             0               
    24 s_2_5        *              1             0             1 
    25 t_2_5                 115.628             0               
    26 s_1_6        *              0             0             1 
    27 t_1_6                 135.417             0               
    28 s_2_6        *              1             0             1 
    29 t_2_6                 135.417             0               
    30 t_1_7                       0             0               
    31 t_2_7                       0             0               
    32 t_1_8                       0             0               
    33 t_2_8                 31.9065             0               
    34 r_1_1_2      *              1             0             1 
    35 u_1_1_2      *              0             0             1 
    36 r_2_1_2      *              1             0             1 
    37 u_2_1_2      *              0             0             1 
    38 r_1_1_3      *              1             0             1 
    39 u_1_1_3      *              0             0             1 
    40 r_2_1_3      *              0             0             1 
    41 u_2_1_3      *              0             0             1 
    42 r_1_1_4      *              1             0             1 
    43 u_1_1_4      *              0             0             1 
    44 r_2_1_4      *              1             0             1 
    45 u_2_1_4      *              0             0             1 
    46 r_1_1_5      *              1             0             1 
    47 u_1_1_5      *              0             0             1 
    48 r_2_1_5      *              0             0             1 
    49 u_2_1_5      *              0             0             1 
    50 r_1_2_3      *              1             0             1 
    51 u_1_2_3      *              0             0             1 
    52 r_2_2_3      *              1             0             1 
    53 u_2_2_3      *              0             0             1 
    54 r_1_2_4      *              0             0             1 
    55 u_1_2_4      *              1             0             1 
    56 r_2_2_4      *              1             0             1 
    57 u_2_2_4      *              0             0             1 
    58 r_1_2_5      *              1             0             1 
    59 u_1_2_5      *              0             0             1 
    60 r_2_2_5      *              1             0             1 
    61 u_2_2_5      *              0             0             1 
    62 r_1_2_8      *              1             0             1 
    63 u_1_2_8      *              0             0             1 
    64 r_2_2_8      *              1             0             1 
    65 u_2_2_8      *              0             0             1 
    66 r_1_3_4      *              1             0             1 
    67 u_1_3_4      *              0             0             1 
    68 r_2_3_4      *              1             0             1 
    69 u_2_3_4      *              0             0             1 
    70 r_1_3_5      *              1             0             1 
    71 u_1_3_5      *              0             0             1 
    72 r_2_3_5      *              0             0             1 
    73 u_2_3_5      *              0             0             1 
    74 r_1_4_5      *              1             0             1 
    75 u_1_4_5      *              0             0             1 
    76 r_2_4_5      *              1             0             1 
    77 u_2_4_5      *              0             0             1 
    78 r_1_4_8      *              1             0             1 
    79 u_1_4_8      *              0             0             1 
    80 r_2_4_8      *              1             0             1 
    81 u_2_4_8      *              0             0             1 
    82 r_1_5_7      *              1             0             1 
    83 u_1_5_7      *              0             0             1 
    84 r_2_5_7      *              0             0             1 
    85 u_2_5_7      *              1             0             1 
    86 r_1_7_8      *              1             0             1 
    87 u_1_7_8      *              0             0             1 
    88 r_2_7_8      *              0             0             1 
    89 u_2_7_8      *              0             0             1 

Integer feasibility conditions:

KKT.PE: max.abs.err = 4.55e-13 on row 100
        max.rel.err = 1.10e-16 on row 32
        High quality

KKT.PB: max.abs.err = 2.27e-13 on row 101
        max.rel.err = 2.51e-16 on row 101
        High quality

End of output
